
(set-logic ALL) 

(declare-datatype MyList ((Nil) (Cons (head Real) (tail MyList)) )) 
(declare-fun l0 () MyList) 
(declare-fun l1 () MyList) 
(declare-fun l2 () MyList) 
(declare-fun l3 () MyList) 
(declare-fun i0 () Real) 
(declare-fun i1 () Real) 
(assert (and (is-Cons l3) (= l3 Nil) (= l1 Nil)) )
(assert (is-Nil Nil) )
(assert (not (= l0 Nil)) )
(assert (or (is-Cons Nil) (= l2 Nil) (= l2 Nil)) )
(assert (is-Cons Nil) )
(assert (or (is-Cons Nil) (= l1 l0) (is-Nil Nil)) )
(assert (is-Nil l2) )
(assert (and (is-Nil Nil) (= l1 l0) (= l0 Nil)) )
(check-sat)
